<number of tasks>
50

<cycle time>
1000

<order strength>
0.198


<task times>
1 161
2 292
3 120
4 114
5 133
6 197
7 110
8 141
9 79
10 38
11 36
12 145
13 115
14 203
15 116
16 327
17 78
18 184
19 45
20 61
21 156
22 62
23 95
24 181
25 123
26 21
27 185
28 48
29 167
30 64
31 182
32 260
33 64
34 112
35 169
36 36
37 122
38 134
39 218
40 80
41 261
42 58
43 42
44 75
45 274
46 48
47 114
48 80
49 226
50 197

<precedence relations>
1,15
2,15
3,6
3,7
3,8
3,10
4,9
4,11
5,7
5,12
5,13
5,14
6,15
7,15
8,18
9,16
10,17
10,19
10,22
11,21
13,20
15,23
15,24
15,25
15,26
15,27
16,30
17,31
18,28
19,29
20,32
22,47
25,38
27,37
28,33
29,34
30,35
31,36
33,39
34,40
35,40
38,41
39,42
40,42
40,44
40,45
40,46
41,43
43,47
43,48
43,49
45,50

<end>
